0000000000000000
0000000000000000
0000000000000000
0000011000000000
0000011100000000
0000000110000000
0000000011000000
0000000011000000
0000000001100000
0000000011100000
0000000111100000
0000011101100000
0000111001100000
0001110000110000
0000000000000000
0000000000000000
